46 85 6 58 12 36 48 66 74 32 99 8 49 28 62 18 19 84 47 5 77 92 29 95 78 65 67 35 40 54 57 11 55 21 16 26 51 70 72 81 56 73 42 2 13 71 24 20 43 69 34 7 39 4 91 80 50 96 82 44 90 3 25 22 63 52 23 9 61 30 60 86 97 68 41 0 93 64 17 37 87 88 59 45 33 1 15 98 31 75 53 83 76 89 79 38 14 94 27 10